set P1 := 1 2 3;
set P2 := 4 5 6;

set S := 0 1 2 3 4 5 6;

param f :=
    1 1.5
    2 1.4
    3 1.3
    4 1.4
    5 1.2
    6 1;
    
param q :=
    1 5
    2 10
    3 20
    4 10
    5 20
    6 40;

param sMin := 0;
param sMax := 80;

param d :=
    0 5
    1 10
    2 20
    3 15
    4 30
    5 15
    6 30;
    
param h :=
    1 1.5
    2 1.4
    3 1.6;

param a :=
    1 10
    2 5
    3 0;

param p :=
    0 1
    1 0.5
    2 0.5
    3 0.25
    4 0.25
    5 0.25
    6 0.25;
